(set-info :smt-lib-version 2.6)
(set-logic QF_S)
(set-info :source |
Generated by: Murphy Berzish, Mitja Kulczynski, Federico Mora, Florin Manea, Joel Day, Dirk Nowotka, Vijay Ganesh, Zhengyang Lu
Generated on: 2020-10-01
Description: Translated from a collection of real-world regex queries, AutomataArk, collected by Loris D’Antoni and Fang Wang: https://github.com/lorisdanto/automatark
Application: Evaluate solvers on real-world regex queries
Target solver: Z3str3RE, CVC4, OSTRICH, Z3seq, Z3str3, Z3-Trau
Publications: Berzish, M., Kulczynski, M., Mora, F., Manea, F., Day, J. D., Nowotka, D., & Ganesh, V. (2021, July). An SMT solver for regular expressions and linear arithmetic over string length. In CAV 2021.
|)
(set-info :license "https://creativecommons.org/licenses/by/4.0/")
(set-info :category "industrial")
(set-info :status unsat)

(declare-const X String)
(assert (str.in_re X (re.++ (re.opt (str.to_re "+39")) (re.union (re.++ (str.to_re "38") (re.union (str.to_re "{") (str.to_re "8") (str.to_re ",") (str.to_re "9") (str.to_re "}") (str.to_re "|") (str.to_re "0"))) (re.++ (str.to_re "34") (re.union (str.to_re "{") (re.range "7" "9") (str.to_re "}") (str.to_re "|") (str.to_re "0"))) (re.++ (str.to_re "36") (re.union (str.to_re "6") (str.to_re "|") (str.to_re "8") (str.to_re "0"))) (re.++ (str.to_re "33") (re.union (str.to_re "{") (re.range "3" "9") (str.to_re "}") (str.to_re "|") (str.to_re "0"))) (re.++ (str.to_re "32") (re.union (str.to_re "{") (str.to_re "8") (str.to_re ",") (str.to_re "9") (str.to_re "}")))) ((_ re.loop 7 7) (re.range "0" "9")) (str.to_re "\u{a}"))))
(assert (not (str.in_re X (re.++ (str.to_re "<a ") (re.* (re.union (re.range "a" "z") (re.range "A" "Z") (re.range "0" "9") (str.to_re " ") (str.to_re "=") (str.to_re "\u{22}") (str.to_re "'") (str.to_re ".") (str.to_re ":") (str.to_re ";") (str.to_re "?"))) (str.to_re "href") (re.* (str.to_re "=")) (re.* (re.union (re.range "a" "z") (re.range "A" "Z") (re.range "0" "9") (str.to_re " ") (str.to_re "=") (str.to_re "\u{22}") (str.to_re "'") (str.to_re ".") (str.to_re ":") (str.to_re ";") (str.to_re ">") (str.to_re "?"))) (re.* (re.comp (str.to_re ">"))) (str.to_re ">") (re.* (re.union (str.to_re " ") (str.to_re "\u{9}") (str.to_re "\u{a}") (str.to_re "\u{c}") (str.to_re "\u{d}"))) (str.to_re "/a") (re.* (re.union (str.to_re " ") (str.to_re "\u{9}") (str.to_re "\u{a}") (str.to_re "\u{c}") (str.to_re "\u{d}"))) (str.to_re ">\u{a}") (re.* (re.union (re.range "a" "z") (re.range "A" "Z") (re.range "0" "9") (str.to_re " ") (str.to_re "=") (str.to_re "\u{22}") (str.to_re "'") (str.to_re ".") (str.to_re ":") (str.to_re ";") (str.to_re ">") (str.to_re "?"))) (re.* (re.comp (str.to_re "<"))) (str.to_re "<")))))
(assert (not (str.in_re X (str.to_re "ReportIterenetUser-Agent:Host:KEYLOGGER/bar_pl/chk_bar.fcgi\u{a}"))))
(assert (str.in_re X (re.++ (str.to_re "/filename=") (re.* (re.comp (str.to_re "\u{a}"))) (str.to_re ".wri/i\u{a}"))))
(assert (not (str.in_re X (re.union (re.++ ((_ re.loop 7 7) (re.++ ((_ re.loop 1 4) (re.union (re.range "0" "9") (re.range "A" "F") (re.range "a" "f"))) (str.to_re ":"))) ((_ re.loop 1 4) (re.union (re.range "0" "9") (re.range "A" "F") (re.range "a" "f")))) (re.++ ((_ re.loop 3 3) (re.++ ((_ re.loop 1 3) (re.range "0" "9")) (str.to_re "."))) ((_ re.loop 1 3) (re.range "0" "9")) (str.to_re "\u{a}"))))))
(check-sat)

(exit)
